assets/logs/8_12x12_clingo/8_12x12_clingo.solution.log

-------------------------------------------------
|129|119| 81| 62| 61|115| 17| 66| 76|111| 21|  7|
-------------------------------------------------
| 79| 57| 63|117| 83| 64| 78|113| 19|  9| 70|109|
-------------------------------------------------
|121|127| 60| 59| 65|  0|  0| 15| 68| 74|  5| 23|
-------------------------------------------------
| 55| 77|123| 85|  0| 80| 67| 20| 11| 25|107| 72|
-------------------------------------------------
|125| 58| 93| 75|  0|  0| 13| 82|105|  3|  0| 38|
-------------------------------------------------
| 91| 53| 87| 56| 95|  0| 18| 69| 22| 36| 27|  1|
-------------------------------------------------
|  0| 54|  0| 51| 73|  0| 84|103| 29|  2| 40| 34|
-------------------------------------------------
| 94| 89| 50| 97| 46|101| 71| 16| 42| 24| 31|  4|
-------------------------------------------------
| 52|  0| 96| 90| 49|  0| 44| 86| 12|106| 32|  0|
-------------------------------------------------
|122| 92| 47| 48| 99| 88| 14|104| 26|112|  6| 33|
-------------------------------------------------
| 45| 98|124|118| 41|102|128|114| 37| 10|108| 30|
-------------------------------------------------
|  0|120| 43|100|126|116| 39|  0|110| 28| 35|  8|
-------------------------------------------------

| n = 12 | k = 9 | coverage = 137, 95.13888888888889%
 Time 299.997
 Name 8_12x12_clingo

