assets/logs/8_12x12_clingo/8_12x12_clingo.log
clingo version 5.4.0
Reading from ...ts/logs/8_12x12_clingo/knights_tour.lp ...
Solving...
Answer: 1
occ(1,3,6) occ(1,9,6) occ(1,4,5) occ(1,5,6) occ(1,3,7) occ(1,9,2) occ(1,6,6) occ(1,9,12) occ(1,5,5) occ(2,6,12) occ(3,7,10) coverage(6)
Optimization: -6
Answer: 2
occ(1,3,6) occ(1,9,6) occ(1,4,5) occ(1,5,6) occ(1,3,7) occ(1,9,2) occ(1,6,6) occ(1,9,12) occ(1,5,5) occ(2,6,12) occ(3,7,10) coverage(61) occ(12,1,8) occ(16,1,4) occ(70,1,7) occ(74,1,3) occ(80,1,6) occ(136,1,2) occ(142,1,1) occ(8,2,7) occ(14,2,6) occ(22,2,2) occ(33,2,12) occ(68,2,9) occ(72,2,5) occ(78,2,4) occ(82,2,8) occ(86,2,10) occ(140,2,3) occ(10,3,9) occ(18,3,5) occ(24,3,4) occ(35,3,10) occ(76,3,2) occ(88,3,8) occ(134,3,3) occ(138,3,1) occ(6,4,8) occ(20,4,3) occ(26,4,2) occ(31,4,11) occ(37,4,12) occ(66,4,10) occ(84,4,9) occ(90,4,6) occ(94,4,4) occ(132,4,1) occ(4,5,10) occ(19,5,12) occ(28,5,4) occ(29,5,9) occ(62,5,7) occ(100,5,2) occ(130,5,3) occ(5,6,8) occ(17,6,10) occ(27,6,7) occ(30,6,2) occ(39,6,11) occ(58,6,4) occ(64,6,9) occ(92,6,5) occ(96,6,3) occ(128,6,1) occ(21,7,11) occ(25,7,9) occ(32,7,4) occ(55,7,12) occ(60,7,6) occ(98,7,1) occ(102,7,3) occ(116,7,2) occ(7,8,7) occ(15,8,9) occ(34,8,6) occ(41,8,12) occ(53,8,10) occ(56,8,3) occ(104,8,5) occ(118,8,4) occ(126,8,2) occ(23,9,10) occ(36,9,4) occ(40,9,8) occ(49,9,7) occ(57,9,11) occ(114,9,1) occ(9,10,8) occ(13,10,10) occ(38,10,6) occ(43,10,11) occ(48,10,7) occ(51,10,9) occ(54,10,2) occ(106,10,4) occ(120,10,3) occ(124,10,1) occ(42,11,9) occ(46,11,5) occ(47,11,8) occ(52,11,4) occ(59,11,10) occ(108,11,6) occ(112,11,2) occ(11,12,9) occ(44,12,7) occ(45,12,10) occ(50,12,6) occ(110,12,4) occ(122,12,2)
Optimization: -61
Answer: 3
occ(1,3,6) occ(1,9,6) occ(1,4,5) occ(1,5,6) occ(1,3,7) occ(1,9,2) occ(1,6,6) occ(1,9,12) occ(1,5,5) occ(2,6,12) occ(3,7,10) coverage(63) occ(10,1,9) occ(16,1,4) occ(23,1,10) occ(70,1,7) occ(80,1,6) occ(8,2,7) occ(14,2,6) occ(22,2,2) occ(33,2,12) occ(68,2,9) occ(72,2,5) occ(78,2,4) occ(82,2,8) occ(12,3,8) occ(18,3,5) occ(21,3,11) occ(24,3,4) occ(25,3,9) occ(35,3,10) occ(76,3,2) occ(6,4,8) occ(20,4,3) occ(26,4,2) occ(27,4,7) occ(31,4,11) occ(37,4,12) occ(66,4,10) occ(74,4,4) occ(84,4,9) occ(4,5,10) occ(19,5,12) occ(28,5,4) occ(29,5,9) occ(61,5,3) occ(62,5,7) occ(100,5,8) occ(30,6,2) occ(39,6,11) occ(58,6,4) occ(59,6,5) occ(64,6,9) occ(86,6,8) occ(98,6,10) occ(17,7,11) occ(34,7,3) occ(55,7,8) occ(60,7,6) occ(96,7,12) occ(102,7,7) occ(116,7,2) occ(7,8,7) occ(32,8,1) occ(38,8,2) occ(41,8,12) occ(53,8,10) occ(56,8,3) occ(57,8,6) occ(88,8,9) occ(104,8,5) occ(5,9,9) occ(15,9,10) occ(36,9,4) occ(49,9,7) occ(94,9,11) occ(114,9,1) occ(118,9,3) occ(9,10,8) occ(40,10,3) occ(43,10,11) occ(48,10,7) occ(51,10,9) occ(54,10,2) occ(90,10,10) occ(106,10,4) occ(120,10,1) occ(13,11,11) occ(42,11,1) occ(46,11,5) occ(47,11,8) occ(52,11,4) occ(92,11,12) occ(108,11,6) occ(112,11,2) occ(11,12,9) occ(44,12,3) occ(45,12,10) occ(50,12,6) occ(110,12,4) occ(122,12,2)
Optimization: -63
Answer: 4
occ(1,3,6) occ(1,9,6) occ(1,4,5) occ(1,5,6) occ(1,3,7) occ(1,9,2) occ(1,6,6) occ(1,9,12) occ(1,5,5) occ(2,6,12) occ(3,7,10) coverage(94) occ(14,1,5) occ(26,1,3) occ(37,1,9) occ(43,1,10) occ(51,1,4) occ(12,2,7) occ(16,2,3) occ(22,2,4) occ(28,2,1) occ(33,2,12) occ(39,2,11) occ(45,2,8) occ(53,2,2) occ(81,2,10) occ(18,3,1) occ(24,3,2) occ(35,3,10) occ(41,3,9) occ(49,3,5) occ(79,3,8) occ(10,4,8) occ(20,4,3) occ(30,4,2) occ(31,4,11) occ(47,4,7) occ(55,4,1) occ(77,4,6) occ(83,4,9) occ(93,4,10) occ(25,5,7) occ(57,5,3) occ(65,5,1) occ(75,5,4) occ(85,5,11) occ(91,5,8) occ(95,5,12) occ(99,5,10) occ(8,6,7) occ(29,6,10) occ(32,6,1) occ(59,6,5) occ(63,6,3) occ(69,6,4) occ(87,6,9) occ(101,6,8) occ(6,7,9) occ(23,7,6) occ(27,7,8) occ(67,7,2) occ(73,7,3) occ(89,7,7) occ(97,7,11) occ(4,8,11) occ(7,8,7) occ(21,8,8) occ(34,8,2) occ(44,8,3) occ(48,8,1) occ(61,8,4) occ(71,8,5) occ(82,8,6) occ(88,8,9) occ(5,9,9) occ(42,9,1) occ(50,9,3) occ(64,9,8) occ(80,9,4) occ(86,9,7) occ(90,9,11) occ(9,10,8) occ(13,10,10) occ(19,10,7) occ(36,10,1) occ(40,10,3) occ(46,10,2) occ(60,10,9) occ(66,10,6) occ(74,10,4) occ(84,10,5) occ(17,11,9) occ(52,11,2) occ(56,11,6) occ(62,11,7) occ(70,11,5) occ(78,11,3) occ(92,11,12) occ(11,12,9) occ(15,12,11) occ(38,12,2) occ(54,12,4) occ(58,12,8) occ(68,12,7) occ(72,12,3) occ(76,12,5)
Optimization: -94
Answer: 5
occ(1,3,6) occ(1,9,6) occ(1,4,5) occ(1,5,6) occ(1,3,7) occ(1,9,2) occ(1,6,6) occ(1,9,12) occ(1,5,5) occ(2,6,12) occ(3,7,10) coverage(102) occ(14,1,5) occ(26,1,3) occ(37,1,9) occ(43,1,10) occ(51,1,4) occ(12,2,7) occ(16,2,3) occ(22,2,4) occ(28,2,1) occ(33,2,12) occ(39,2,11) occ(45,2,8) occ(53,2,2) occ(81,2,10) occ(18,3,1) occ(24,3,2) occ(35,3,10) occ(41,3,9) occ(49,3,5) occ(79,3,8) occ(10,4,8) occ(20,4,3) occ(30,4,2) occ(31,4,11) occ(47,4,7) occ(55,4,1) occ(77,4,6) occ(83,4,9) occ(93,4,10) occ(25,5,7) occ(57,5,3) occ(65,5,1) occ(75,5,4) occ(85,5,11) occ(91,5,8) occ(95,5,12) occ(99,5,10) occ(8,6,7) occ(29,6,10) occ(32,6,1) occ(59,6,5) occ(63,6,3) occ(69,6,4) occ(87,6,9) occ(101,6,8) occ(6,7,9) occ(23,7,6) occ(27,7,8) occ(67,7,2) occ(73,7,3) occ(89,7,7) occ(97,7,11) occ(4,8,11) occ(7,8,7) occ(21,8,8) occ(34,8,2) occ(44,8,3) occ(48,8,1) occ(61,8,4) occ(71,8,5) occ(82,8,6) occ(88,8,9) occ(98,8,12) occ(5,9,9) occ(42,9,1) occ(50,9,3) occ(64,9,8) occ(80,9,4) occ(86,9,7) occ(90,9,11) occ(100,9,10) occ(9,10,8) occ(13,10,10) occ(19,10,7) occ(36,10,1) occ(40,10,3) occ(46,10,2) occ(60,10,9) occ(66,10,6) occ(74,10,4) occ(84,10,5) occ(96,10,11) occ(17,11,9) occ(52,11,2) occ(56,11,6) occ(62,11,7) occ(70,11,5) occ(78,11,3) occ(92,11,12) occ(11,12,9) occ(15,12,11) occ(38,12,2) occ(54,12,4) occ(58,12,8) occ(68,12,7) occ(72,12,3) occ(76,12,5) occ(94,12,10)
Optimization: -102
Answer: 6
occ(1,3,6) occ(1,9,6) occ(1,4,5) occ(1,5,6) occ(1,3,7) occ(1,9,2) occ(1,6,6) occ(1,9,12) occ(1,5,5) occ(2,6,12) occ(3,7,10) coverage(103) occ(14,1,5) occ(26,1,3) occ(37,1,9) occ(43,1,10) occ(51,1,4) occ(12,2,7) occ(16,2,3) occ(22,2,4) occ(28,2,1) occ(33,2,12) occ(39,2,11) occ(45,2,8) occ(53,2,2) occ(81,2,10) occ(18,3,1) occ(24,3,2) occ(35,3,10) occ(41,3,9) occ(49,3,5) occ(79,3,8) occ(10,4,8) occ(20,4,3) occ(30,4,2) occ(31,4,11) occ(47,4,7) occ(55,4,1) occ(77,4,6) occ(83,4,9) occ(93,4,10) occ(25,5,7) occ(57,5,3) occ(65,5,1) occ(75,5,4) occ(85,5,11) occ(91,5,8) occ(95,5,12) occ(99,5,10) occ(8,6,7) occ(29,6,10) occ(32,6,1) occ(59,6,5) occ(63,6,3) occ(69,6,4) occ(87,6,9) occ(101,6,8) occ(6,7,9) occ(23,7,6) occ(27,7,8) occ(67,7,2) occ(73,7,3) occ(89,7,7) occ(97,7,11) occ(4,8,11) occ(7,8,7) occ(21,8,8) occ(34,8,2) occ(44,8,3) occ(48,8,1) occ(61,8,4) occ(71,8,5) occ(82,8,6) occ(88,8,9) occ(98,8,12) occ(5,9,9) occ(42,9,1) occ(50,9,3) occ(64,9,8) occ(80,9,4) occ(86,9,7) occ(90,9,11) occ(100,9,10) occ(9,10,8) occ(13,10,10) occ(19,10,7) occ(36,10,1) occ(40,10,3) occ(46,10,2) occ(60,10,9) occ(66,10,6) occ(74,10,4) occ(84,10,5) occ(96,10,11) occ(17,11,9) occ(52,11,2) occ(56,11,6) occ(62,11,7) occ(70,11,5) occ(78,11,3) occ(92,11,12) occ(102,11,11) occ(11,12,9) occ(15,12,11) occ(38,12,2) occ(54,12,4) occ(58,12,8) occ(68,12,7) occ(72,12,3) occ(76,12,5) occ(94,12,10)
Optimization: -103
Answer: 7
occ(1,3,6) occ(1,9,6) occ(1,4,5) occ(1,5,6) occ(1,3,7) occ(1,9,2) occ(1,6,6) occ(1,9,12) occ(1,5,5) occ(2,6,12) occ(3,7,10) coverage(112) occ(12,1,10) occ(34,1,9) occ(40,1,6) occ(41,1,7) occ(44,1,2) occ(49,1,3) occ(57,1,1) occ(108,1,4) occ(8,2,9) occ(14,2,12) occ(18,2,10) occ(32,2,11) occ(36,2,7) occ(42,2,4) occ(43,2,5) occ(50,2,2) occ(51,2,1) occ(55,2,3) occ(81,2,8) occ(110,2,6) occ(10,3,11) occ(20,3,12) occ(38,3,5) occ(39,3,8) occ(46,3,1) occ(47,3,4) occ(59,3,2) occ(83,3,10) occ(106,3,3) occ(6,4,8) occ(16,4,11) occ(24,4,9) occ(30,4,10) occ(45,4,6) occ(48,4,3) occ(52,4,1) occ(53,4,2) occ(61,4,4) occ(79,4,7) occ(85,4,12) occ(4,5,10) occ(22,5,11) occ(26,5,7) occ(37,5,9) occ(54,5,3) occ(60,5,4) occ(90,5,1) occ(104,5,2) occ(17,6,10) occ(28,6,9) occ(35,6,7) occ(58,6,2) occ(63,6,5) occ(74,6,4) occ(77,6,8) occ(87,6,11) occ(92,6,3) occ(19,7,12) occ(31,7,6) occ(56,7,4) occ(62,7,5) occ(65,7,7) occ(68,7,8) occ(69,7,9) occ(88,7,2) occ(102,7,3) occ(11,8,9) occ(15,8,11) occ(21,8,10) occ(29,8,4) occ(33,8,8) occ(66,8,6) occ(72,8,5) occ(75,8,7) occ(76,8,3) occ(89,8,12) occ(94,8,2) occ(100,8,1) occ(5,9,9) occ(9,9,11) occ(64,9,4) occ(67,9,8) occ(70,9,7) occ(71,9,10) occ(86,9,1) occ(98,9,3) occ(117,9,5) occ(13,10,10) occ(23,10,9) occ(27,10,5) occ(73,10,8) occ(78,10,4) occ(84,10,3) occ(91,10,11) occ(96,10,1) occ(97,10,6) occ(105,10,2) occ(111,10,7) occ(7,11,10) occ(25,11,7) occ(80,11,6) occ(95,11,8) occ(101,11,3) occ(109,11,5) occ(115,11,4) occ(82,12,4) occ(93,12,10) occ(99,12,5) occ(103,12,1) occ(107,12,3) occ(113,12,6)
Optimization: -112
Answer: 8
occ(1,3,6) occ(1,9,6) occ(1,4,5) occ(1,5,6) occ(1,3,7) occ(1,9,2) occ(1,6,6) occ(1,9,12) occ(1,5,5) occ(2,6,12) occ(3,7,10) coverage(115) occ(12,1,10) occ(34,1,9) occ(40,1,6) occ(41,1,7) occ(44,1,2) occ(49,1,3) occ(57,1,1) occ(108,1,4) occ(112,1,8) occ(8,2,9) occ(14,2,12) occ(18,2,10) occ(32,2,11) occ(36,2,7) occ(42,2,4) occ(43,2,5) occ(50,2,2) occ(51,2,1) occ(55,2,3) occ(81,2,8) occ(110,2,6) occ(10,3,11) occ(20,3,12) occ(38,3,5) occ(39,3,8) occ(46,3,1) occ(47,3,4) occ(59,3,2) occ(83,3,10) occ(106,3,3) occ(114,3,9) occ(6,4,8) occ(16,4,11) occ(24,4,9) occ(30,4,10) occ(45,4,6) occ(48,4,3) occ(52,4,1) occ(53,4,2) occ(61,4,4) occ(79,4,7) occ(85,4,12) occ(4,5,10) occ(22,5,11) occ(26,5,7) occ(37,5,9) occ(54,5,3) occ(60,5,4) occ(90,5,1) occ(104,5,2) occ(17,6,10) occ(28,6,9) occ(35,6,7) occ(58,6,2) occ(63,6,5) occ(74,6,4) occ(77,6,8) occ(87,6,11) occ(92,6,3) occ(19,7,12) occ(31,7,6) occ(56,7,4) occ(62,7,5) occ(65,7,7) occ(68,7,8) occ(69,7,9) occ(88,7,2) occ(102,7,3) occ(11,8,9) occ(15,8,11) occ(21,8,10) occ(29,8,4) occ(33,8,8) occ(66,8,6) occ(72,8,5) occ(75,8,7) occ(76,8,3) occ(89,8,12) occ(94,8,2) occ(100,8,1) occ(5,9,9) occ(9,9,11) occ(64,9,4) occ(67,9,8) occ(70,9,7) occ(71,9,10) occ(86,9,1) occ(98,9,3) occ(13,10,10) occ(23,10,9) occ(27,10,5) occ(73,10,8) occ(78,10,4) occ(84,10,3) occ(91,10,11) occ(96,10,1) occ(97,10,6) occ(105,10,2) occ(111,10,7) occ(7,11,10) occ(25,11,7) occ(80,11,6) occ(95,11,8) occ(101,11,3) occ(109,11,5) occ(82,12,4) occ(93,12,10) occ(99,12,5) occ(103,12,1) occ(107,12,3) occ(113,12,6)
Optimization: -115
Answer: 9
occ(1,3,6) occ(1,9,6) occ(1,4,5) occ(1,5,6) occ(1,3,7) occ(1,9,2) occ(1,6,6) occ(1,9,12) occ(1,5,5) occ(2,6,12) occ(3,7,10) coverage(116) occ(12,1,10) occ(34,1,9) occ(40,1,6) occ(41,1,7) occ(44,1,2) occ(49,1,3) occ(57,1,1) occ(108,1,4) occ(112,1,8) occ(8,2,9) occ(14,2,12) occ(18,2,10) occ(32,2,11) occ(36,2,7) occ(42,2,4) occ(43,2,5) occ(50,2,2) occ(51,2,1) occ(55,2,3) occ(81,2,8) occ(110,2,6) occ(10,3,11) occ(20,3,12) occ(38,3,5) occ(39,3,8) occ(46,3,1) occ(47,3,4) occ(59,3,2) occ(83,3,10) occ(106,3,3) occ(114,3,9) occ(6,4,8) occ(16,4,11) occ(24,4,9) occ(30,4,10) occ(45,4,6) occ(48,4,3) occ(52,4,1) occ(53,4,2) occ(61,4,4) occ(79,4,7) occ(85,4,12) occ(4,5,10) occ(22,5,11) occ(26,5,7) occ(37,5,9) occ(54,5,3) occ(60,5,4) occ(90,5,1) occ(104,5,2) occ(17,6,10) occ(28,6,9) occ(35,6,7) occ(58,6,2) occ(63,6,5) occ(74,6,4) occ(77,6,8) occ(87,6,11) occ(92,6,3) occ(19,7,12) occ(31,7,6) occ(56,7,4) occ(62,7,5) occ(65,7,7) occ(68,7,8) occ(69,7,9) occ(88,7,2) occ(102,7,3) occ(11,8,9) occ(15,8,11) occ(21,8,10) occ(29,8,4) occ(33,8,8) occ(66,8,6) occ(72,8,5) occ(75,8,7) occ(76,8,3) occ(89,8,12) occ(94,8,2) occ(100,8,1) occ(5,9,9) occ(9,9,11) occ(64,9,4) occ(67,9,8) occ(70,9,7) occ(71,9,10) occ(86,9,1) occ(98,9,3) occ(117,9,5) occ(13,10,10) occ(23,10,9) occ(27,10,5) occ(73,10,8) occ(78,10,4) occ(84,10,3) occ(91,10,11) occ(96,10,1) occ(97,10,6) occ(105,10,2) occ(111,10,7) occ(7,11,10) occ(25,11,7) occ(80,11,6) occ(95,11,8) occ(101,11,3) occ(109,11,5) occ(115,11,4) occ(82,12,4) occ(93,12,10) occ(99,12,5) occ(103,12,1) occ(107,12,3) occ(113,12,6)
Optimization: -116
Answer: 10
occ(1,3,6) occ(1,9,6) occ(1,4,5) occ(1,5,6) occ(1,3,7) occ(1,9,2) occ(1,6,6) occ(1,9,12) occ(1,5,5) occ(2,6,12) occ(3,7,10) coverage(117) occ(12,1,10) occ(34,1,9) occ(40,1,6) occ(41,1,7) occ(44,1,2) occ(49,1,3) occ(57,1,1) occ(108,1,4) occ(112,1,8) occ(8,2,9) occ(14,2,12) occ(18,2,10) occ(32,2,11) occ(36,2,7) occ(42,2,4) occ(43,2,5) occ(50,2,2) occ(51,2,1) occ(55,2,3) occ(81,2,8) occ(110,2,6) occ(10,3,11) occ(20,3,12) occ(38,3,5) occ(39,3,8) occ(46,3,1) occ(47,3,4) occ(59,3,2) occ(83,3,10) occ(106,3,3) occ(114,3,9) occ(6,4,8) occ(16,4,11) occ(24,4,9) occ(30,4,10) occ(45,4,6) occ(48,4,3) occ(52,4,1) occ(53,4,2) occ(61,4,4) occ(79,4,7) occ(85,4,12) occ(4,5,10) occ(22,5,11) occ(26,5,7) occ(37,5,9) occ(54,5,3) occ(60,5,4) occ(90,5,1) occ(104,5,2) occ(116,5,8) occ(17,6,10) occ(28,6,9) occ(35,6,7) occ(58,6,2) occ(63,6,5) occ(74,6,4) occ(77,6,8) occ(87,6,11) occ(92,6,3) occ(19,7,12) occ(31,7,6) occ(56,7,4) occ(62,7,5) occ(65,7,7) occ(68,7,8) occ(69,7,9) occ(88,7,2) occ(102,7,3) occ(11,8,9) occ(15,8,11) occ(21,8,10) occ(29,8,4) occ(33,8,8) occ(66,8,6) occ(72,8,5) occ(75,8,7) occ(76,8,3) occ(89,8,12) occ(94,8,2) occ(100,8,1) occ(5,9,9) occ(9,9,11) occ(64,9,4) occ(67,9,8) occ(70,9,7) occ(71,9,10) occ(86,9,1) occ(98,9,3) occ(13,10,10) occ(23,10,9) occ(27,10,5) occ(73,10,8) occ(78,10,4) occ(84,10,3) occ(91,10,11) occ(96,10,1) occ(97,10,6) occ(105,10,2) occ(111,10,7) occ(7,11,10) occ(25,11,7) occ(80,11,6) occ(95,11,8) occ(101,11,3) occ(109,11,5) occ(115,11,4) occ(82,12,4) occ(93,12,10) occ(99,12,5) occ(103,12,1) occ(107,12,3) occ(113,12,6)
Optimization: -117
Answer: 11
occ(1,3,6) occ(1,9,6) occ(1,4,5) occ(1,5,6) occ(1,3,7) occ(1,9,2) occ(1,6,6) occ(1,9,12) occ(1,5,5) occ(2,6,12) occ(3,7,10) coverage(118) occ(12,1,10) occ(34,1,9) occ(40,1,6) occ(41,1,7) occ(44,1,2) occ(49,1,3) occ(57,1,1) occ(108,1,4) occ(112,1,8) occ(8,2,9) occ(14,2,12) occ(18,2,10) occ(32,2,11) occ(36,2,7) occ(42,2,4) occ(43,2,5) occ(50,2,2) occ(51,2,1) occ(55,2,3) occ(81,2,8) occ(110,2,6) occ(10,3,11) occ(20,3,12) occ(38,3,5) occ(39,3,8) occ(46,3,1) occ(47,3,4) occ(59,3,2) occ(83,3,10) occ(106,3,3) occ(114,3,9) occ(6,4,8) occ(16,4,11) occ(24,4,9) occ(30,4,10) occ(45,4,6) occ(48,4,3) occ(52,4,1) occ(53,4,2) occ(61,4,4) occ(79,4,7) occ(85,4,12) occ(4,5,10) occ(22,5,11) occ(26,5,7) occ(37,5,9) occ(54,5,3) occ(60,5,4) occ(90,5,1) occ(104,5,2) occ(116,5,8) occ(17,6,10) occ(28,6,9) occ(35,6,7) occ(58,6,2) occ(63,6,5) occ(74,6,4) occ(77,6,8) occ(87,6,11) occ(92,6,3) occ(19,7,12) occ(31,7,6) occ(56,7,4) occ(62,7,5) occ(65,7,7) occ(68,7,8) occ(69,7,9) occ(88,7,2) occ(102,7,3) occ(11,8,9) occ(15,8,11) occ(21,8,10) occ(29,8,4) occ(33,8,8) occ(66,8,6) occ(72,8,5) occ(75,8,7) occ(76,8,3) occ(89,8,12) occ(94,8,2) occ(100,8,1) occ(5,9,9) occ(9,9,11) occ(64,9,4) occ(67,9,8) occ(70,9,7) occ(71,9,10) occ(86,9,1) occ(98,9,3) occ(117,9,5) occ(13,10,10) occ(23,10,9) occ(27,10,5) occ(73,10,8) occ(78,10,4) occ(84,10,3) occ(91,10,11) occ(96,10,1) occ(97,10,6) occ(105,10,2) occ(111,10,7) occ(7,11,10) occ(25,11,7) occ(80,11,6) occ(95,11,8) occ(101,11,3) occ(109,11,5) occ(115,11,4) occ(82,12,4) occ(93,12,10) occ(99,12,5) occ(103,12,1) occ(107,12,3) occ(113,12,6)
Optimization: -118
Answer: 12
occ(1,3,6) occ(1,9,6) occ(1,4,5) occ(1,5,6) occ(1,3,7) occ(1,9,2) occ(1,6,6) occ(1,9,12) occ(1,5,5) occ(2,6,12) occ(3,7,10) coverage(119) occ(16,1,10) occ(34,1,9) occ(40,1,6) occ(41,1,7) occ(44,1,2) occ(49,1,3) occ(57,1,1) occ(77,1,11) occ(108,1,4) occ(18,2,12) occ(22,2,10) occ(32,2,11) occ(36,2,7) occ(42,2,4) occ(43,2,5) occ(50,2,2) occ(51,2,1) occ(55,2,3) occ(79,2,9) occ(110,2,6) occ(14,3,11) occ(38,3,5) occ(39,3,8) occ(46,3,1) occ(47,3,4) occ(59,3,2) occ(75,3,12) occ(83,3,10) occ(106,3,3) occ(118,3,9) occ(20,4,11) occ(24,4,9) occ(30,4,10) occ(45,4,6) occ(48,4,3) occ(52,4,1) occ(53,4,2) occ(61,4,4) occ(81,4,8) occ(85,4,12) occ(112,4,7) occ(12,5,12) occ(26,5,7) occ(37,5,9) occ(54,5,3) occ(60,5,4) occ(73,5,11) occ(90,5,1) occ(104,5,2) occ(116,5,10) occ(28,6,9) occ(35,6,7) occ(58,6,2) occ(63,6,5) occ(74,6,4) occ(87,6,11) occ(92,6,3) occ(114,6,8) occ(10,7,11) occ(31,7,6) occ(56,7,4) occ(62,7,5) occ(65,7,7) occ(68,7,8) occ(71,7,12) occ(88,7,2) occ(102,7,3) occ(4,8,11) occ(8,8,9) occ(29,8,4) occ(33,8,8) occ(66,8,6) occ(69,8,10) occ(72,8,5) occ(76,8,3) occ(89,8,12) occ(94,8,2) occ(100,8,1) occ(5,9,9) occ(9,9,11) occ(15,9,10) occ(21,9,5) occ(64,9,4) occ(67,9,8) occ(70,9,7) occ(86,9,1) occ(98,9,3) occ(6,10,10) occ(11,10,9) occ(17,10,8) occ(27,10,5) occ(78,10,4) occ(84,10,3) occ(91,10,11) occ(96,10,1) occ(97,10,6) occ(105,10,2) occ(111,10,7) occ(117,10,12) occ(7,11,10) occ(13,11,11) occ(19,11,6) occ(23,11,4) occ(80,11,2) occ(95,11,8) occ(101,11,3) occ(109,11,5) occ(113,11,9) occ(25,12,6) occ(82,12,4) occ(93,12,10) occ(99,12,5) occ(103,12,1) occ(107,12,3) occ(115,12,11)
Optimization: -119
Answer: 13
occ(1,3,6) occ(1,9,6) occ(1,4,5) occ(1,5,6) occ(1,3,7) occ(1,9,2) occ(1,6,6) occ(1,9,12) occ(1,5,5) occ(2,6,12) occ(3,7,10) coverage(124) occ(16,1,10) occ(34,1,9) occ(40,1,6) occ(41,1,7) occ(44,1,2) occ(49,1,3) occ(57,1,1) occ(77,1,11) occ(108,1,4) occ(18,2,12) occ(22,2,10) occ(32,2,11) occ(36,2,7) occ(42,2,4) occ(43,2,5) occ(50,2,2) occ(51,2,1) occ(55,2,3) occ(79,2,9) occ(110,2,6) occ(14,3,11) occ(38,3,5) occ(39,3,8) occ(46,3,1) occ(47,3,4) occ(59,3,2) occ(75,3,12) occ(83,3,10) occ(106,3,3) occ(118,3,9) occ(20,4,11) occ(24,4,9) occ(30,4,10) occ(45,4,6) occ(48,4,3) occ(52,4,1) occ(53,4,2) occ(61,4,4) occ(81,4,8) occ(85,4,12) occ(112,4,7) occ(12,5,12) occ(26,5,7) occ(37,5,9) occ(54,5,3) occ(60,5,4) occ(73,5,11) occ(90,5,1) occ(104,5,2) occ(116,5,10) occ(120,5,8) occ(28,6,9) occ(35,6,7) occ(58,6,2) occ(63,6,5) occ(74,6,4) occ(87,6,11) occ(92,6,3) occ(114,6,8) occ(122,6,10) occ(10,7,11) occ(17,7,9) occ(31,7,6) occ(56,7,4) occ(62,7,5) occ(65,7,7) occ(68,7,8) occ(71,7,12) occ(88,7,2) occ(102,7,3) occ(4,8,11) occ(8,8,9) occ(19,8,7) occ(29,8,4) occ(33,8,8) occ(66,8,6) occ(69,8,10) occ(72,8,5) occ(76,8,3) occ(89,8,12) occ(94,8,2) occ(100,8,1) occ(5,9,9) occ(9,9,11) occ(15,9,10) occ(21,9,5) occ(64,9,4) occ(67,9,8) occ(70,9,7) occ(86,9,1) occ(98,9,3) occ(6,10,10) occ(11,10,9) occ(27,10,5) occ(78,10,4) occ(84,10,3) occ(91,10,11) occ(96,10,1) occ(97,10,6) occ(105,10,2) occ(111,10,7) occ(117,10,8) occ(7,11,10) occ(13,11,11) occ(23,11,4) occ(80,11,2) occ(95,11,8) occ(101,11,3) occ(109,11,5) occ(115,11,6) occ(121,11,9) occ(25,12,6) occ(82,12,4) occ(93,12,10) occ(99,12,5) occ(103,12,1) occ(107,12,3) occ(113,12,8) occ(119,12,7) occ(123,12,11)
Optimization: -124
Answer: 14
occ(1,3,6) occ(1,9,6) occ(1,4,5) occ(1,5,6) occ(1,3,7) occ(1,9,2) occ(1,6,6) occ(1,9,12) occ(1,5,5) occ(2,6,12) occ(3,7,10) coverage(126) occ(26,1,11) occ(34,1,9) occ(38,1,7) occ(39,1,6) occ(72,1,10) occ(91,1,4) occ(95,1,2) occ(101,1,5) occ(113,1,3) occ(125,1,1) occ(24,2,9) occ(32,2,11) occ(37,2,4) occ(40,2,5) occ(41,2,8) occ(74,2,12) occ(89,2,2) occ(99,2,3) occ(103,2,7) occ(109,2,6) occ(115,2,1) occ(22,3,11) occ(28,3,12) occ(36,3,8) occ(70,3,9) occ(76,3,10) occ(93,3,3) occ(97,3,1) occ(105,3,5) occ(111,3,4) occ(123,3,2) occ(6,4,8) occ(30,4,10) occ(35,4,3) occ(42,4,4) occ(43,4,9) occ(66,4,6) occ(78,4,12) occ(87,4,1) occ(107,4,7) occ(117,4,2) occ(124,4,11) occ(4,5,10) occ(10,5,11) occ(20,5,12) occ(44,5,2) occ(64,5,4) occ(65,5,3) occ(68,5,8) occ(69,5,7) occ(121,5,1) occ(122,5,9) occ(5,6,8) occ(8,6,9) occ(33,6,4) occ(45,6,10) occ(48,6,1) occ(67,6,5) occ(80,6,11) occ(85,6,2) occ(119,6,3) occ(120,6,7) occ(12,7,12) occ(18,7,11) occ(46,7,3) occ(49,7,9) occ(53,7,7) occ(56,7,4) occ(59,7,6) occ(62,7,5) occ(63,7,2) occ(71,7,8) occ(7,8,7) occ(16,8,9) occ(31,8,3) occ(47,8,11) occ(50,8,2) occ(55,8,5) occ(58,8,6) occ(61,8,4) occ(82,8,12) occ(83,8,1) occ(118,8,8) occ(11,9,10) occ(14,9,11) occ(29,9,1) occ(51,9,8) occ(54,9,5) occ(57,9,7) occ(60,9,4) occ(73,9,9) occ(81,9,3) occ(9,10,8) occ(21,10,4) occ(52,10,3) occ(79,10,5) occ(84,10,11) occ(92,10,7) occ(98,10,2) occ(102,10,6) occ(110,10,10) occ(116,10,9) occ(13,11,11) occ(17,11,7) occ(23,11,6) occ(27,11,2) occ(75,11,8) occ(88,11,10) occ(94,11,5) occ(100,11,4) occ(106,11,9) occ(112,11,12) occ(15,12,9) occ(19,12,5) occ(25,12,4) occ(77,12,6) occ(86,12,12) occ(90,12,8) occ(96,12,3) occ(104,12,7) occ(108,12,11) occ(114,12,10)
Optimization: -126
Answer: 15
occ(1,3,6) occ(1,9,6) occ(1,4,5) occ(1,5,6) occ(1,3,7) occ(1,9,2) occ(1,6,6) occ(1,9,12) occ(1,5,5) occ(2,6,12) occ(3,7,10) coverage(127) occ(26,1,11) occ(34,1,9) occ(38,1,7) occ(39,1,6) occ(72,1,10) occ(91,1,4) occ(95,1,2) occ(101,1,5) occ(113,1,3) occ(125,1,1) occ(24,2,9) occ(32,2,11) occ(37,2,4) occ(40,2,5) occ(41,2,8) occ(74,2,12) occ(89,2,2) occ(99,2,3) occ(103,2,7) occ(109,2,6) occ(115,2,1) occ(126,2,10) occ(22,3,11) occ(28,3,12) occ(36,3,8) occ(70,3,9) occ(76,3,10) occ(93,3,3) occ(97,3,1) occ(105,3,5) occ(111,3,4) occ(123,3,2) occ(6,4,8) occ(30,4,10) occ(35,4,3) occ(42,4,4) occ(43,4,9) occ(66,4,6) occ(78,4,12) occ(87,4,1) occ(107,4,7) occ(117,4,2) occ(124,4,11) occ(4,5,10) occ(10,5,11) occ(20,5,12) occ(44,5,2) occ(64,5,4) occ(65,5,3) occ(68,5,8) occ(69,5,7) occ(121,5,1) occ(122,5,9) occ(5,6,8) occ(8,6,9) occ(33,6,4) occ(45,6,10) occ(48,6,1) occ(67,6,5) occ(80,6,11) occ(85,6,2) occ(119,6,3) occ(120,6,7) occ(12,7,12) occ(18,7,11) occ(46,7,3) occ(49,7,9) occ(53,7,7) occ(56,7,4) occ(59,7,6) occ(62,7,5) occ(63,7,2) occ(71,7,8) occ(7,8,7) occ(16,8,9) occ(31,8,3) occ(47,8,11) occ(50,8,2) occ(55,8,5) occ(58,8,6) occ(61,8,4) occ(82,8,12) occ(83,8,1) occ(118,8,8) occ(11,9,10) occ(14,9,11) occ(29,9,1) occ(51,9,8) occ(54,9,5) occ(57,9,7) occ(60,9,4) occ(73,9,9) occ(81,9,3) occ(9,10,8) occ(21,10,4) occ(52,10,3) occ(79,10,5) occ(84,10,11) occ(92,10,7) occ(98,10,2) occ(102,10,6) occ(110,10,10) occ(116,10,9) occ(13,11,11) occ(17,11,7) occ(23,11,6) occ(27,11,2) occ(75,11,8) occ(88,11,10) occ(94,11,5) occ(100,11,4) occ(106,11,9) occ(112,11,12) occ(15,12,9) occ(19,12,5) occ(25,12,4) occ(77,12,6) occ(86,12,12) occ(90,12,8) occ(96,12,3) occ(104,12,7) occ(108,12,11) occ(114,12,10)
Optimization: -127
Answer: 16
occ(1,3,6) occ(1,9,6) occ(1,4,5) occ(1,5,6) occ(1,3,7) occ(1,9,2) occ(1,6,6) occ(1,9,12) occ(1,5,5) occ(2,6,12) occ(3,7,10) coverage(128) occ(29,1,7) occ(46,1,3) occ(50,1,5) occ(54,1,1) occ(82,1,11) occ(87,1,6) occ(88,1,8) occ(96,1,4) occ(112,1,2) occ(123,1,10) occ(11,2,11) occ(31,2,5) occ(35,2,7) occ(44,2,1) occ(52,2,3) occ(80,2,9) occ(85,2,4) occ(86,2,10) occ(89,2,8) occ(90,2,6) occ(98,2,2) occ(125,2,12) occ(13,3,9) occ(27,3,8) occ(48,3,4) occ(56,3,2) occ(67,3,10) occ(84,3,12) occ(94,3,5) occ(110,3,3) occ(114,3,1) occ(121,3,11) occ(9,4,12) occ(33,4,6) occ(34,4,4) occ(37,4,8) occ(42,4,2) occ(78,4,10) occ(83,4,3) occ(91,4,9) occ(92,4,7) occ(100,4,1) occ(127,4,11) occ(15,5,8) occ(25,5,7) occ(38,5,3) occ(39,5,10) occ(58,5,1) occ(65,5,11) occ(69,5,9) occ(108,5,4) occ(116,5,2) occ(119,5,12) occ(7,6,11) occ(21,6,8) occ(32,6,3) occ(36,6,5) occ(40,6,1) occ(71,6,7) occ(76,6,9) occ(81,6,4) occ(93,6,10) occ(102,6,2) occ(17,7,7) occ(23,7,6) occ(41,7,9) occ(60,7,2) occ(63,7,12) occ(75,7,4) occ(95,7,8) occ(106,7,3) occ(117,7,11) occ(118,7,1) occ(4,8,11) occ(5,8,12) occ(19,8,9) occ(30,8,2) occ(43,8,7) occ(73,8,6) occ(74,8,8) occ(79,8,5) occ(104,8,1) occ(105,8,10) occ(120,8,3) occ(45,9,5) occ(61,9,11) occ(62,9,1) occ(77,9,3) occ(97,9,9) occ(107,9,8) occ(115,9,10) occ(6,10,12) occ(10,10,10) occ(14,10,6) occ(20,10,5) occ(24,10,3) occ(28,10,1) occ(49,10,8) occ(55,10,11) occ(66,10,4) occ(72,10,7) occ(103,10,9) occ(122,10,2) occ(12,11,8) occ(16,11,4) occ(47,11,6) occ(53,11,9) occ(59,11,12) occ(64,11,2) occ(70,11,5) occ(99,11,10) occ(109,11,7) occ(113,11,11) occ(126,11,3) occ(8,12,11) occ(18,12,6) occ(22,12,4) occ(26,12,2) occ(51,12,7) occ(57,12,10) occ(68,12,3) occ(101,12,8) occ(111,12,9) occ(124,12,1)
Optimization: -128
Answer: 17
occ(1,3,6) occ(1,9,6) occ(1,4,5) occ(1,5,6) occ(1,3,7) occ(1,9,2) occ(1,6,6) occ(1,9,12) occ(1,5,5) occ(2,6,12) occ(3,7,10) coverage(129) occ(29,1,7) occ(46,1,3) occ(50,1,5) occ(54,1,1) occ(82,1,11) occ(87,1,6) occ(88,1,8) occ(96,1,4) occ(112,1,2) occ(123,1,10) occ(11,2,11) occ(31,2,5) occ(35,2,7) occ(44,2,1) occ(52,2,3) occ(80,2,9) occ(85,2,4) occ(86,2,10) occ(89,2,8) occ(90,2,6) occ(98,2,2) occ(125,2,12) occ(13,3,9) occ(27,3,8) occ(48,3,4) occ(56,3,2) occ(67,3,10) occ(84,3,12) occ(94,3,5) occ(110,3,3) occ(114,3,1) occ(121,3,11) occ(9,4,12) occ(33,4,6) occ(34,4,4) occ(37,4,8) occ(42,4,2) occ(78,4,10) occ(83,4,3) occ(91,4,9) occ(92,4,7) occ(100,4,1) occ(127,4,11) occ(15,5,8) occ(25,5,7) occ(38,5,3) occ(39,5,10) occ(58,5,1) occ(65,5,11) occ(69,5,9) occ(108,5,4) occ(116,5,2) occ(119,5,12) occ(7,6,11) occ(21,6,8) occ(32,6,3) occ(36,6,5) occ(40,6,1) occ(71,6,7) occ(76,6,9) occ(81,6,4) occ(93,6,10) occ(102,6,2) occ(17,7,7) occ(23,7,6) occ(41,7,9) occ(60,7,2) occ(63,7,12) occ(75,7,4) occ(95,7,8) occ(106,7,3) occ(117,7,11) occ(118,7,1) occ(4,8,11) occ(5,8,12) occ(19,8,9) occ(30,8,2) occ(43,8,7) occ(73,8,6) occ(74,8,8) occ(79,8,5) occ(104,8,1) occ(105,8,10) occ(120,8,3) occ(45,9,5) occ(61,9,11) occ(62,9,1) occ(77,9,3) occ(97,9,9) occ(107,9,8) occ(115,9,10) occ(6,10,12) occ(10,10,10) occ(14,10,6) occ(20,10,5) occ(24,10,3) occ(28,10,1) occ(49,10,8) occ(55,10,11) occ(66,10,4) occ(72,10,7) occ(103,10,9) occ(122,10,2) occ(12,11,8) occ(16,11,4) occ(47,11,6) occ(53,11,9) occ(59,11,12) occ(64,11,2) occ(70,11,5) occ(99,11,10) occ(109,11,7) occ(113,11,11) occ(126,11,3) occ(8,12,11) occ(18,12,6) occ(22,12,4) occ(26,12,2) occ(51,12,7) occ(57,12,10) occ(68,12,3) occ(101,12,8) occ(111,12,9) occ(124,12,1) occ(128,12,5)
Optimization: -129
Answer: 18
occ(1,3,6) occ(1,9,6) occ(1,4,5) occ(1,5,6) occ(1,3,7) occ(1,9,2) occ(1,6,6) occ(1,9,12) occ(1,5,5) occ(2,6,12) occ(3,7,10) coverage(130) occ(10,1,9) occ(14,1,5) occ(18,1,1) occ(80,1,10) occ(84,1,8) occ(90,1,7) occ(94,1,11) occ(111,1,2) occ(115,1,6) occ(123,1,4) occ(128,1,12) occ(129,1,3) occ(8,2,11) occ(12,2,7) occ(16,2,3) occ(71,2,5) occ(85,2,2) occ(86,2,6) occ(92,2,9) occ(113,2,4) occ(117,2,8) occ(122,2,12) occ(126,2,10) occ(127,2,1) occ(20,3,2) occ(78,3,11) occ(82,3,9) occ(87,3,4) occ(88,3,8) occ(96,3,12) occ(109,3,1) occ(120,3,10) occ(121,3,5) occ(125,3,3) occ(6,4,12) occ(13,4,10) occ(39,4,1) occ(69,4,6) occ(73,4,4) occ(83,4,3) occ(89,4,2) occ(100,4,9) occ(119,4,7) occ(124,4,11) occ(4,5,10) occ(17,5,7) occ(22,5,1) occ(41,5,3) occ(67,5,8) occ(76,5,12) occ(91,5,4) occ(98,5,11) occ(107,5,2) occ(118,5,9) occ(11,6,11) occ(15,6,9) occ(19,6,5) occ(31,6,1) occ(37,6,2) occ(75,6,3) occ(81,6,4) occ(95,6,7) occ(102,6,10) occ(24,7,2) occ(33,7,3) occ(43,7,4) occ(49,7,7) occ(55,7,12) occ(65,7,9) occ(74,7,11) occ(79,7,6) occ(93,7,5) occ(105,7,1) occ(116,7,8) occ(9,8,12) occ(21,8,6) occ(29,8,2) occ(35,8,1) occ(47,8,5) occ(53,8,10) occ(63,8,7) occ(77,8,4) occ(97,8,8) occ(103,8,3) occ(104,8,11) occ(112,8,9) occ(5,9,9) occ(26,9,1) occ(44,9,4) occ(45,9,3) occ(51,9,8) occ(57,9,11) occ(72,9,10) occ(101,9,5) occ(114,9,7) occ(7,10,11) occ(23,10,5) occ(27,10,1) occ(34,10,4) occ(38,10,6) occ(46,10,2) occ(52,10,3) occ(61,10,8) occ(64,10,9) occ(99,10,7) occ(106,10,12) occ(110,10,10) occ(25,11,3) occ(28,11,2) occ(32,11,6) occ(42,11,5) occ(50,11,1) occ(56,11,4) occ(59,11,10) occ(60,11,8) occ(66,11,7) occ(70,11,11) occ(30,12,4) occ(36,12,5) occ(40,12,7) occ(48,12,3) occ(54,12,2) occ(58,12,6) occ(62,12,10) occ(68,12,9) occ(108,12,11)
Optimization: -130
Answer: 19
occ(1,3,6) occ(1,9,6) occ(1,4,5) occ(1,5,6) occ(1,3,7) occ(1,9,2) occ(1,6,6) occ(1,9,12) occ(1,5,5) occ(2,6,12) occ(3,7,10) coverage(131) occ(8,1,12) occ(18,1,7) occ(22,1,11) occ(62,1,5) occ(63,1,4) occ(67,1,8) occ(77,1,9) occ(82,1,3) occ(112,1,10) occ(116,1,6) occ(120,1,2) occ(130,1,1) occ(10,2,10) occ(20,2,9) occ(58,2,2) occ(64,2,3) occ(65,2,6) occ(71,2,11) occ(79,2,7) occ(80,2,1) occ(84,2,5) occ(110,2,12) occ(114,2,8) occ(118,2,4) occ(6,3,11) occ(16,3,8) occ(24,3,12) occ(60,3,4) occ(61,3,3) occ(66,3,5) occ(69,3,9) occ(75,3,10) occ(122,3,1) occ(128,3,2) occ(12,4,9) occ(21,4,8) occ(26,4,10) occ(56,4,1) occ(68,4,7) occ(73,4,12) occ(78,4,2) occ(81,4,6) occ(86,4,4) occ(108,4,11) occ(124,4,3) occ(4,5,10) occ(14,5,7) occ(39,5,12) occ(59,5,2) occ(76,5,4) occ(83,5,8) occ(94,5,3) occ(106,5,9) occ(126,5,1) occ(19,6,7) occ(23,6,9) occ(28,6,11) occ(37,6,10) occ(54,6,2) occ(57,6,4) occ(70,6,8) occ(88,6,3) occ(92,6,1) occ(96,6,5) occ(30,7,9) occ(35,7,12) occ(41,7,11) occ(52,7,4) occ(55,7,2) occ(74,7,5) occ(85,7,7) occ(104,7,8) occ(5,8,12) occ(17,8,8) occ(25,8,10) occ(32,8,11) occ(43,8,9) occ(47,8,5) occ(51,8,3) occ(72,8,7) occ(90,8,2) occ(95,8,1) occ(98,8,4) occ(102,8,6) occ(13,9,9) occ(33,9,11) occ(45,9,7) occ(50,9,5) occ(53,9,1) occ(87,9,8) occ(91,9,4) occ(97,9,3) occ(107,9,10) occ(7,10,11) occ(15,10,7) occ(27,10,9) occ(34,10,12) occ(48,10,3) occ(49,10,4) occ(89,10,6) occ(93,10,2) occ(100,10,5) occ(105,10,8) occ(113,10,10) occ(123,10,1) occ(11,11,10) occ(31,11,12) occ(38,11,9) occ(42,11,5) occ(46,11,1) occ(99,11,2) occ(103,11,6) occ(109,11,11) occ(115,11,8) occ(119,11,4) occ(125,11,3) occ(129,11,7) occ(9,12,12) occ(29,12,10) occ(36,12,11) occ(40,12,7) occ(44,12,3) occ(101,12,4) occ(111,12,9) occ(117,12,6) occ(121,12,2) occ(127,12,5)
Optimization: -131
*** Info : (clingo): INTERRUPTED by signal!
SATISFIABLE

TIME LIMIT   : 1
Models       : 19+
  Optimum    : unknown
Optimization : -131
Calls        : 1
Time         : 300.000s (Solving: 295.05s 1st Model: 0.01s Unsat: 0.00s)
CPU Time     : 299.997s
